c nIsolatedPIs 0
c maxPI 32
p cnf 238 619
c gate 33 4 20 0
4 -33 0
20 -33 0
-4 -20 33 0
c gate 34 2 18 0
2 -34 0
18 -34 0
-2 -18 34 0
c gate 35 1 17 0
1 -35 0
17 -35 0
-1 -17 35 0
c gate 36 3 19 0
3 -36 0
19 -36 0
-3 -19 36 0
c gate 37 -35 -36 0
-35 -37 0
-36 -37 0
35 36 37 0
c gate 38 -34 37 0
-34 -38 0
37 -38 0
34 -37 38 0
c gate 39 4 -20 0
4 -39 0
-20 -39 0
-4 20 39 0
c gate 40 -4 20 0
-4 -40 0
20 -40 0
4 -20 40 0
c gate 41 -39 -40 0
-39 -41 0
-40 -41 0
39 40 41 0
c gate 42 -3 -19 0
-3 -42 0
-19 -42 0
3 19 42 0
c gate 43 -41 -42 0
-41 -43 0
-42 -43 0
41 42 43 0
c gate 44 -38 43 0
-38 -44 0
43 -44 0
38 -43 44 0
c gate 45 -33 -44 0
-33 -45 0
-44 -45 0
33 44 45 0
c gate 46 -5 21 0
-5 -46 0
21 -46 0
5 -21 46 0
c gate 47 5 -21 0
5 -47 0
-21 -47 0
-5 21 47 0
c gate 48 -46 -47 0
-46 -48 0
-47 -48 0
46 47 48 0
c gate 49 -45 -48 0
-45 -49 0
-48 -49 0
45 48 49 0
c gate 50 -2 18 0
-2 -50 0
18 -50 0
2 -18 50 0
c gate 51 35 -50 0
35 -51 0
-50 -51 0
-35 50 51 0
c gate 52 -2 51 0
-2 -52 0
51 -52 0
2 -51 52 0
c gate 53 -36 52 0
-36 -53 0
52 -53 0
36 -52 53 0
c gate 54 44 53 0
44 -54 0
53 -54 0
-44 -53 54 0
c gate 55 49 -54 0
49 -55 0
-54 -55 0
-49 54 55 0
c gate 56 -6 -22 0
-6 -56 0
-22 -56 0
6 22 56 0
c gate 57 6 22 0
6 -57 0
22 -57 0
-6 -22 57 0
c gate 58 -56 -57 0
-56 -58 0
-57 -58 0
56 57 58 0
c gate 59 5 21 0
5 -59 0
21 -59 0
-5 -21 59 0
c gate 60 58 -59 0
58 -60 0
-59 -60 0
-58 59 60 0
c gate 61 -55 60 0
-55 -61 0
60 -61 0
55 -60 61 0
c gate 62 49 54 0
49 -62 0
54 -62 0
-49 -54 62 0
c gate 63 -61 -62 0
-61 -63 0
-62 -63 0
61 62 63 0
c gate 64 -11 -27 0
-11 -64 0
-27 -64 0
11 27 64 0
c gate 65 11 27 0
11 -65 0
27 -65 0
-11 -27 65 0
c gate 66 -64 -65 0
-64 -66 0
-65 -66 0
64 65 66 0
c gate 67 -10 26 0
-10 -67 0
26 -67 0
10 -26 67 0
c gate 68 -9 25 0
-9 -68 0
25 -68 0
9 -25 68 0
c gate 69 -7 23 0
-7 -69 0
23 -69 0
7 -23 69 0
c gate 70 6 -22 0
6 -70 0
-22 -70 0
-6 22 70 0
c gate 71 7 -23 0
7 -71 0
-23 -71 0
-7 23 71 0
c gate 72 -69 -71 0
-69 -72 0
-71 -72 0
69 71 72 0
c gate 73 -70 72 0
-70 -73 0
72 -73 0
70 -72 73 0
c gate 74 -1 17 0
-1 -74 0
17 -74 0
1 -17 74 0
c gate 75 -50 -74 0
-50 -75 0
-74 -75 0
50 74 75 0
c gate 76 2 -18 0
2 -76 0
-18 -76 0
-2 18 76 0
c gate 77 3 -19 0
3 -77 0
-19 -77 0
-3 19 77 0
c gate 78 -76 -77 0
-76 -78 0
-77 -78 0
76 77 78 0
c gate 79 -75 78 0
-75 -79 0
78 -79 0
75 -78 79 0
c gate 80 -3 19 0
-3 -80 0
19 -80 0
3 -19 80 0
c gate 81 -40 -80 0
-40 -81 0
-80 -81 0
40 80 81 0
c gate 82 -79 81 0
-79 -82 0
81 -82 0
79 -81 82 0
c gate 83 -39 -47 0
-39 -83 0
-47 -83 0
39 47 83 0
c gate 84 -82 83 0
-82 -84 0
83 -84 0
82 -83 84 0
c gate 85 -46 -58 0
-46 -85 0
-58 -85 0
46 58 85 0
c gate 86 -84 85 0
-84 -86 0
85 -86 0
84 -85 86 0
c gate 87 73 -86 0
73 -87 0
-86 -87 0
-73 86 87 0
c gate 88 -69 -87 0
-69 -88 0
-87 -88 0
69 87 88 0
c gate 89 8 24 0
8 -89 0
24 -89 0
-8 -24 89 0
c gate 90 -8 -24 0
-8 -90 0
-24 -90 0
8 24 90 0
c gate 91 -89 -90 0
-89 -91 0
-90 -91 0
89 90 91 0
c gate 92 88 -91 0
88 -92 0
-91 -92 0
-88 91 92 0
c gate 93 8 -24 0
8 -93 0
-24 -93 0
-8 24 93 0
c gate 94 9 -25 0
9 -94 0
-25 -94 0
-9 25 94 0
c gate 95 -93 -94 0
-93 -95 0
-94 -95 0
93 94 95 0
c gate 96 -92 95 0
-92 -96 0
95 -96 0
92 -95 96 0
c gate 97 -68 -96 0
-68 -97 0
-96 -97 0
68 96 97 0
c gate 98 10 -26 0
10 -98 0
-26 -98 0
-10 26 98 0
c gate 99 -67 -98 0
-67 -99 0
-98 -99 0
67 98 99 0
c gate 100 -97 99 0
-97 -100 0
99 -100 0
97 -99 100 0
c gate 101 -67 -100 0
-67 -101 0
-100 -101 0
67 100 101 0
c gate 102 -66 -101 0
-66 -102 0
-101 -102 0
66 101 102 0
c gate 103 -14 -30 0
-14 -103 0
-30 -103 0
14 30 103 0
c gate 104 14 30 0
14 -104 0
30 -104 0
-14 -30 104 0
c gate 105 -103 -104 0
-103 -105 0
-104 -105 0
103 104 105 0
c gate 106 16 32 0
16 -106 0
32 -106 0
-16 -32 106 0
c gate 107 -16 -32 0
-16 -107 0
-32 -107 0
16 32 107 0
c gate 108 -106 -107 0
-106 -108 0
-107 -108 0
106 107 108 0
c gate 109 -105 -108 0
-105 -109 0
-108 -109 0
105 108 109 0
c gate 110 -15 -31 0
-15 -110 0
-31 -110 0
15 31 110 0
c gate 111 15 31 0
15 -111 0
31 -111 0
-15 -31 111 0
c gate 112 -110 -111 0
-110 -112 0
-111 -112 0
110 111 112 0
c gate 113 13 29 0
13 -113 0
29 -113 0
-13 -29 113 0
c gate 114 -13 -29 0
-13 -114 0
-29 -114 0
13 29 114 0
c gate 115 -113 -114 0
-113 -115 0
-114 -115 0
113 114 115 0
c gate 116 12 28 0
12 -116 0
28 -116 0
-12 -28 116 0
c gate 117 -12 -28 0
-12 -117 0
-28 -117 0
12 28 117 0
c gate 118 -116 -117 0
-116 -118 0
-117 -118 0
116 117 118 0
c gate 119 -115 -118 0
-115 -119 0
-118 -119 0
115 118 119 0
c gate 120 -112 119 0
-112 -120 0
119 -120 0
112 -119 120 0
c gate 121 109 120 0
109 -121 0
120 -121 0
-109 -120 121 0
c gate 122 102 121 0
102 -122 0
121 -122 0
-102 -121 122 0
c gate 123 66 101 0
66 -123 0
101 -123 0
-66 -101 123 0
c gate 124 -102 -123 0
-102 -124 0
-123 -124 0
102 123 124 0
c gate 125 -95 99 0
-95 -125 0
99 -125 0
95 -99 125 0
c gate 126 -98 -125 0
-98 -126 0
-125 -126 0
98 125 126 0
c gate 127 66 -126 0
66 -127 0
-126 -127 0
-66 126 127 0
c gate 128 -124 -127 0
-124 -128 0
-127 -128 0
124 127 128 0
c gate 129 95 -99 0
95 -129 0
-99 -129 0
-95 99 129 0
c gate 130 -125 -129 0
-125 -130 0
-129 -130 0
125 129 130 0
c gate 131 97 -99 0
97 -131 0
-99 -131 0
-97 99 131 0
c gate 132 -100 -131 0
-100 -132 0
-131 -132 0
100 131 132 0
c gate 133 -130 -132 0
-130 -133 0
-132 -133 0
130 132 133 0
c gate 134 130 132 0
130 -134 0
132 -134 0
-130 -132 134 0
c gate 135 -10 -26 0
-10 -135 0
-26 -135 0
10 26 135 0
c gate 136 -56 -61 0
-56 -136 0
-61 -136 0
56 61 136 0
c gate 137 -72 -136 0
-72 -137 0
-136 -137 0
72 136 137 0
c gate 138 91 137 0
91 -138 0
137 -138 0
-91 -137 138 0
c gate 139 -7 -23 0
-7 -139 0
-23 -139 0
7 23 139 0
c gate 140 -89 139 0
-89 -140 0
139 -140 0
89 -139 140 0
c gate 141 -9 -25 0
-9 -141 0
-25 -141 0
9 25 141 0
c gate 142 -90 -141 0
-90 -142 0
-141 -142 0
90 141 142 0
c gate 143 -140 142 0
-140 -143 0
142 -143 0
140 -142 143 0
c gate 144 -138 143 0
-138 -144 0
143 -144 0
138 -143 144 0
c gate 145 10 26 0
10 -145 0
26 -145 0
-10 -26 145 0
c gate 146 9 25 0
9 -146 0
25 -146 0
-9 -25 146 0
c gate 147 -145 -146 0
-145 -147 0
-146 -147 0
145 146 147 0
c gate 148 -144 147 0
-144 -148 0
147 -148 0
144 -147 148 0
c gate 149 -135 -148 0
-135 -149 0
-148 -149 0
135 148 149 0
c gate 150 -65 -149 0
-65 -150 0
-149 -150 0
65 149 150 0
c gate 151 -64 -150 0
-64 -151 0
-150 -151 0
64 150 151 0
c gate 152 118 151 0
118 -152 0
151 -152 0
-118 -151 152 0
c gate 153 -113 -116 0
-113 -153 0
-116 -153 0
113 116 153 0
c gate 154 105 -153 0
105 -154 0
-153 -154 0
-105 153 154 0
c gate 155 -105 153 0
-105 -155 0
153 -155 0
105 -153 155 0
c gate 156 -154 -155 0
-154 -156 0
-155 -156 0
154 155 156 0
c gate 157 -152 153 0
-152 -157 0
153 -157 0
152 -153 157 0
c gate 158 -114 -157 0
-114 -158 0
-157 -158 0
114 157 158 0
c gate 159 -105 158 0
-105 -159 0
158 -159 0
105 -158 159 0
c gate 160 105 -158 0
105 -160 0
-158 -160 0
-105 158 160 0
c gate 161 -159 -160 0
-159 -161 0
-160 -161 0
159 160 161 0
c gate 162 156 161 0
156 -162 0
161 -162 0
-156 -161 162 0
c gate 163 -156 -161 0
-156 -163 0
-161 -163 0
156 161 163 0
c gate 164 -162 -163 0
-162 -164 0
-163 -164 0
162 163 164 0
c gate 165 -152 164 0
-152 -165 0
164 -165 0
152 -164 165 0
c gate 166 -61 -137 0
-61 -166 0
-137 -166 0
61 137 166 0
c gate 167 34 35 0
34 -167 0
35 -167 0
-34 -35 167 0
c gate 168 166 167 0
166 -168 0
167 -168 0
-166 -167 168 0
c gate 169 -138 -168 0
-138 -169 0
-168 -169 0
138 168 169 0
c gate 170 165 169 0
165 -170 0
169 -170 0
-165 -169 170 0
c gate 171 -143 147 0
-143 -171 0
147 -171 0
143 -147 171 0
c gate 172 -64 -135 0
-64 -172 0
-135 -172 0
64 135 172 0
c gate 173 118 172 0
118 -173 0
172 -173 0
-118 -172 173 0
c gate 174 -171 173 0
-171 -174 0
173 -174 0
171 -173 174 0
c gate 175 -151 174 0
-151 -175 0
174 -175 0
151 -174 175 0
c gate 176 138 -175 0
138 -176 0
-175 -176 0
-138 175 176 0
c gate 177 165 -176 0
165 -177 0
-176 -177 0
-165 176 177 0
c gate 178 -103 -160 0
-103 -178 0
-160 -178 0
103 160 178 0
c gate 179 112 -178 0
112 -179 0
-178 -179 0
-112 178 179 0
c gate 180 -110 -179 0
-110 -180 0
-179 -180 0
110 179 180 0
c gate 181 108 -180 0
108 -181 0
-180 -181 0
-108 180 181 0
c gate 182 -108 180 0
-108 -182 0
180 -182 0
108 -180 182 0
c gate 183 -181 -182 0
-181 -183 0
-182 -183 0
181 182 183 0
c gate 184 -104 -154 0
-104 -184 0
-154 -184 0
104 154 184 0
c gate 185 112 -184 0
112 -185 0
-184 -185 0
-112 184 185 0
c gate 186 -111 -185 0
-111 -186 0
-185 -186 0
111 185 186 0
c gate 187 108 186 0
108 -187 0
186 -187 0
-108 -186 187 0
c gate 188 -108 -186 0
-108 -188 0
-186 -188 0
108 186 188 0
c gate 189 -187 -188 0
-187 -189 0
-188 -189 0
187 188 189 0
c gate 190 -183 189 0
-183 -190 0
189 -190 0
183 -189 190 0
c gate 191 183 -189 0
183 -191 0
-189 -191 0
-183 189 191 0
c gate 192 -112 184 0
-112 -192 0
184 -192 0
112 -184 192 0
c gate 193 -185 -192 0
-185 -193 0
-192 -193 0
185 192 193 0
c gate 194 -112 178 0
-112 -194 0
178 -194 0
112 -178 194 0
c gate 195 -179 -194 0
-179 -195 0
-194 -195 0
179 194 195 0
c gate 196 -193 -195 0
-193 -196 0
-195 -196 0
193 195 196 0
c gate 197 193 195 0
193 -197 0
195 -197 0
-193 -195 197 0
c gate 198 -115 152 0
-115 -198 0
152 -198 0
115 -152 198 0
c gate 199 -163 -198 0
-163 -199 0
-198 -199 0
163 198 199 0
c gate 200 -197 -199 0
-197 -200 0
-199 -200 0
197 199 200 0
c gate 201 -196 -200 0
-196 -201 0
-200 -201 0
196 200 201 0
c gate 202 -191 -201 0
-191 -202 0
-201 -202 0
191 201 202 0
c gate 203 -190 -202 0
-190 -203 0
-202 -203 0
190 202 203 0
c gate 204 -177 203 0
-177 -204 0
203 -204 0
177 -203 204 0
c gate 205 -170 -204 0
-170 -205 0
-204 -205 0
170 204 205 0
c gate 206 180 187 0
180 -206 0
187 -206 0
-180 -187 206 0
c gate 207 -86 -206 0
-86 -207 0
-206 -207 0
86 206 207 0
c gate 208 205 207 0
205 -208 0
207 -208 0
-205 -207 208 0
c gate 209 -72 86 0
-72 -209 0
86 -209 0
72 -86 209 0
c gate 210 -86 -106 0
-86 -210 0
-106 -210 0
86 106 210 0
c gate 211 -187 210 0
-187 -211 0
210 -211 0
187 -210 211 0
c gate 212 181 211 0
181 -212 0
211 -212 0
-181 -211 212 0
c gate 213 -209 -212 0
-209 -213 0
-212 -213 0
209 212 213 0
c gate 214 -208 213 0
-208 -214 0
213 -214 0
208 -213 214 0
c gate 215 -92 -214 0
-92 -215 0
-214 -215 0
92 214 215 0
c gate 216 73 91 0
73 -216 0
91 -216 0
-73 -91 216 0
c gate 217 88 216 0
88 -217 0
216 -217 0
-88 -216 217 0
c gate 218 -92 -217 0
-92 -218 0
-217 -218 0
92 217 218 0
c gate 219 -68 -94 0
-68 -219 0
-94 -219 0
68 94 219 0
c gate 220 -217 219 0
-217 -220 0
219 -220 0
217 -219 220 0
c gate 221 -218 -220 0
-218 -221 0
-220 -221 0
218 220 221 0
c gate 222 -215 -221 0
-215 -222 0
-221 -222 0
215 221 222 0
c gate 223 -134 -222 0
-134 -223 0
-222 -223 0
134 222 223 0
c gate 224 -133 -223 0
-133 -224 0
-223 -224 0
133 223 224 0
c gate 225 -128 224 0
-128 -225 0
224 -225 0
128 -224 225 0
c gate 226 -101 127 0
-101 -226 0
127 -226 0
101 -127 226 0
c gate 227 -102 -226 0
-102 -227 0
-226 -227 0
102 226 227 0
c gate 228 -225 227 0
-225 -228 0
227 -228 0
225 -227 228 0
c gate 229 -122 -228 0
-122 -229 0
-228 -229 0
122 228 229 0
c gate 230 51 -76 0
51 -230 0
-76 -230 0
-51 76 230 0
c gate 231 52 -62 0
52 -231 0
-62 -231 0
-52 62 231 0
c gate 232 230 -231 0
230 -232 0
-231 -232 0
-230 231 232 0
c gate 233 229 -232 0
229 -233 0
-232 -233 0
-229 232 233 0
c gate 234 -229 -231 0
-229 -234 0
-231 -234 0
229 231 234 0
c gate 235 -233 -234 0
-233 -235 0
-234 -235 0
233 234 235 0
c gate 236 63 -235 0
63 -236 0
-235 -236 0
-63 235 236 0
c gate 237 -63 235 0
-63 -237 0
235 -237 0
63 -235 237 0
c gate 238 -236 -237 0
-236 -238 0
-237 -238 0
236 237 238 0
c PO
238 0
